POSCAR for generated by WannierTools
1.0
    3.688905    0.000000    0.000000
    0.000000    3.688905    0.000000
    0.000000    0.000000   58.541940
Fe    Se    
    20    20
Direct
    0.000000    0.000000    0.000000       Fe
    1.844452    1.844452    0.000000       Fe
    0.000000    1.844452    0.447738       Se
    1.844452    0.000000    0.137682       Se
    0.000000    0.000000    0.100000       Fe
    1.844452    1.844452    0.100000       Fe
    0.000000    1.844452    0.547738       Se
    1.844452    0.000000    0.237682       Se
    0.000000    0.000000    0.200000       Fe
    1.844452    1.844452    0.200000       Fe
    0.000000    1.844452    0.647738       Se
    1.844452    0.000000    0.337682       Se
    0.000000    0.000000    0.300000       Fe
    1.844452    1.844452    0.300000       Fe
    0.000000    1.844452    0.747738       Se
    1.844452    0.000000    0.437682       Se
    0.000000    0.000000    0.400000       Fe
    1.844452    1.844452    0.400000       Fe
    0.000000    1.844452    0.847738       Se
    1.844452    0.000000    0.537682       Se
    0.000000    0.000000    0.500000       Fe
    1.844452    1.844452    0.500000       Fe
    0.000000    1.844452    0.947738       Se
    1.844452    0.000000    0.637682       Se
    0.000000    0.000000    0.600000       Fe
    1.844452    1.844452    0.600000       Fe
    0.000000    1.844452    1.047738       Se
    1.844452    0.000000    0.737682       Se
    0.000000    0.000000    0.700000       Fe
    1.844452    1.844452    0.700000       Fe
    0.000000    1.844452    1.147738       Se
    1.844452    0.000000    0.837682       Se
    0.000000    0.000000    0.800000       Fe
    1.844452    1.844452    0.800000       Fe
    0.000000    1.844452    1.247738       Se
    1.844452    0.000000    0.937682       Se
    0.000000    0.000000    0.900000       Fe
    1.844452    1.844452    0.900000       Fe
    0.000000    1.844452    1.347738       Se
    1.844452    0.000000    1.037682       Se
