POSCAR for generated by WannierTools
1.0
    3.688905    0.000000    0.000000
    0.000000    3.688905    0.000000
    0.000000    0.000000    5.854194
Fe    Se    
     2     2
Direct
    0.000000    0.000000    0.000000       Fe
    1.844452    1.844452    0.000000       Fe
    0.000000    1.844452    4.477375       Se
    1.844452    0.000000    1.376819       Se
