Rotated POSCAR by SURFACE card in wt.in by WannierTools
1.0
    3.688905    0.000000    0.000000
    0.000000    3.688905    0.000000
    0.000000    0.000000    5.854194
Fe    Se    
     2     2
Direct
    0.000000    0.000000    0.000000       Fe
    0.844452    0.844452    0.000000       Fe
    0.000000    0.844452    0.477375       Se
    0.844452    0.000000    0.376819       Se
