POSCAR for slab defined by SURFACE card and Nslab and Vacuum_thickness_in_Angstrom in wt.in by WannierTools
1.0
    0.000000    0.000000   10.000000
    2.137711   -1.234208    0.000000
    0.000000  259.062424    0.000000
C     
   200
Cartesian
    0.712570    8.044005    5.000000        C
    0.712570   10.512421    5.000000        C
    0.712570   12.980837    5.000000        C
    0.712570   15.449253    5.000000        C
    0.712570   17.917669    5.000000        C
    0.712570   20.386085    5.000000        C
    0.712570   22.854501    5.000000        C
    0.712570   25.322917    5.000000        C
    0.712570   27.791333    5.000000        C
    0.712570   30.259749    5.000000        C
    0.712570   32.728165    5.000000        C
    0.712570   35.196581    5.000000        C
    0.712570   37.664997    5.000000        C
    0.712570   40.133413    5.000000        C
    0.712570   42.601829    5.000000        C
    0.712570   45.070245    5.000000        C
    0.712570   47.538661    5.000000        C
    0.712570   50.007077    5.000000        C
    0.712570   52.475493    5.000000        C
    0.712570   54.943909    5.000000        C
    0.712570   57.412325    5.000000        C
    0.712570   59.880741    5.000000        C
    0.712570   62.349157    5.000000        C
    0.712570   64.817573    5.000000        C
    0.712570   67.285989    5.000000        C
    0.712570   69.754405    5.000000        C
    0.712570   72.222821    5.000000        C
    0.712570   74.691237    5.000000        C
    0.712570   77.159653    5.000000        C
    0.712570   79.628069    5.000000        C
    0.712570   82.096485    5.000000        C
    0.712570   84.564901    5.000000        C
    0.712570   87.033317    5.000000        C
    0.712570   89.501733    5.000000        C
    0.712570   91.970149    5.000000        C
    0.712570   94.438565    5.000000        C
    0.712570   96.906981    5.000000        C
    0.712570   99.375397    5.000000        C
    0.712570  101.843813    5.000000        C
    0.712570  104.312229    5.000000        C
    0.712570  106.780645    5.000000        C
    0.712570  109.249061    5.000000        C
    0.712570  111.717477    5.000000        C
    0.712570  114.185893    5.000000        C
    0.712570  116.654309    5.000000        C
    0.712570  119.122725    5.000000        C
    0.712570  121.591141    5.000000        C
    0.712570  124.059557    5.000000        C
    0.712570  126.527973    5.000000        C
    0.712570  128.996389    5.000000        C
    0.712570  131.464805    5.000000        C
    0.712570  133.933221    5.000000        C
    0.712570  136.401637    5.000000        C
    0.712570  138.870053    5.000000        C
    0.712570  141.338469    5.000000        C
    0.712570  143.806885    5.000000        C
    0.712570  146.275301    5.000000        C
    0.712570  148.743717    5.000000        C
    0.712570  151.212133    5.000000        C
    0.712570  153.680549    5.000000        C
    0.712570  156.148965    5.000000        C
    0.712570  158.617381    5.000000        C
    0.712570  161.085797    5.000000        C
    0.712570  163.554213    5.000000        C
    0.712570  166.022629    5.000000        C
    0.712570  168.491045    5.000000        C
    0.712570  170.959461    5.000000        C
    0.712570  173.427877    5.000000        C
    0.712570  175.896293    5.000000        C
    0.712570  178.364709    5.000000        C
    0.712570  180.833125    5.000000        C
    0.712570  183.301541    5.000000        C
    0.712570  185.769957    5.000000        C
    0.712570  188.238373    5.000000        C
    0.712570  190.706789    5.000000        C
    0.712570  193.175205    5.000000        C
    0.712570  195.643621    5.000000        C
    0.712570  198.112037    5.000000        C
    0.712570  200.580453    5.000000        C
    0.712570  203.048869    5.000000        C
    0.712570  205.517285    5.000000        C
    0.712570  207.985701    5.000000        C
    0.712570  210.454117    5.000000        C
    0.712570  212.922533    5.000000        C
    0.712570  215.390949    5.000000        C
    0.712570  217.859365    5.000000        C
    0.712570  220.327781    5.000000        C
    0.712570  222.796197    5.000000        C
    0.712570  225.264613    5.000000        C
    0.712570  227.733029    5.000000        C
    0.712570  230.201445    5.000000        C
    0.712570  232.669861    5.000000        C
    0.712570  235.138277    5.000000        C
    0.712570  237.606693    5.000000        C
    0.712570  240.075109    5.000000        C
    0.712570  242.543525    5.000000        C
    0.712570  245.011941    5.000000        C
    0.712570  247.480357    5.000000        C
    0.712570  249.948773    5.000000        C
    0.712570  252.417189    5.000000        C
    1.425141    6.809795    5.000000        C
    1.425141    9.278211    5.000000        C
    1.425141   11.746627    5.000000        C
    1.425141   14.215043    5.000000        C
    1.425141   16.683459    5.000000        C
    1.425141   19.151875    5.000000        C
    1.425141   21.620291    5.000000        C
    1.425141   24.088707    5.000000        C
    1.425141   26.557123    5.000000        C
    1.425141   29.025539    5.000000        C
    1.425141   31.493955    5.000000        C
    1.425141   33.962371    5.000000        C
    1.425141   36.430787    5.000000        C
    1.425141   38.899203    5.000000        C
    1.425141   41.367619    5.000000        C
    1.425141   43.836035    5.000000        C
    1.425141   46.304451    5.000000        C
    1.425141   48.772867    5.000000        C
    1.425141   51.241283    5.000000        C
    1.425141   53.709699    5.000000        C
    1.425141   56.178115    5.000000        C
    1.425141   58.646531    5.000000        C
    1.425141   61.114947    5.000000        C
    1.425141   63.583363    5.000000        C
    1.425141   66.051779    5.000000        C
    1.425141   68.520195    5.000000        C
    1.425141   70.988611    5.000000        C
    1.425141   73.457027    5.000000        C
    1.425141   75.925443    5.000000        C
    1.425141   78.393859    5.000000        C
    1.425141   80.862275    5.000000        C
    1.425141   83.330691    5.000000        C
    1.425141   85.799107    5.000000        C
    1.425141   88.267523    5.000000        C
    1.425141   90.735939    5.000000        C
    1.425141   93.204355    5.000000        C
    1.425141   95.672771    5.000000        C
    1.425141   98.141187    5.000000        C
    1.425141  100.609603    5.000000        C
    1.425141  103.078019    5.000000        C
    1.425141  105.546435    5.000000        C
    1.425141  108.014851    5.000000        C
    1.425141  110.483267    5.000000        C
    1.425141  112.951683    5.000000        C
    1.425141  115.420099    5.000000        C
    1.425141  117.888515    5.000000        C
    1.425141  120.356931    5.000000        C
    1.425141  122.825347    5.000000        C
    1.425141  125.293763    5.000000        C
    1.425141  127.762179    5.000000        C
    1.425141  130.230595    5.000000        C
    1.425141  132.699011    5.000000        C
    1.425141  135.167427    5.000000        C
    1.425141  137.635843    5.000000        C
    1.425141  140.104259    5.000000        C
    1.425141  142.572675    5.000000        C
    1.425141  145.041091    5.000000        C
    1.425141  147.509507    5.000000        C
    1.425141  149.977923    5.000000        C
    1.425141  152.446339    5.000000        C
    1.425141  154.914755    5.000000        C
    1.425141  157.383171    5.000000        C
    1.425141  159.851587    5.000000        C
    1.425141  162.320003    5.000000        C
    1.425141  164.788419    5.000000        C
    1.425141  167.256835    5.000000        C
    1.425141  169.725251    5.000000        C
    1.425141  172.193667    5.000000        C
    1.425141  174.662083    5.000000        C
    1.425141  177.130499    5.000000        C
    1.425141  179.598915    5.000000        C
    1.425141  182.067331    5.000000        C
    1.425141  184.535747    5.000000        C
    1.425141  187.004163    5.000000        C
    1.425141  189.472579    5.000000        C
    1.425141  191.940995    5.000000        C
    1.425141  194.409411    5.000000        C
    1.425141  196.877827    5.000000        C
    1.425141  199.346243    5.000000        C
    1.425141  201.814659    5.000000        C
    1.425141  204.283075    5.000000        C
    1.425141  206.751491    5.000000        C
    1.425141  209.219907    5.000000        C
    1.425141  211.688323    5.000000        C
    1.425141  214.156739    5.000000        C
    1.425141  216.625155    5.000000        C
    1.425141  219.093571    5.000000        C
    1.425141  221.561987    5.000000        C
    1.425141  224.030403    5.000000        C
    1.425141  226.498819    5.000000        C
    1.425141  228.967235    5.000000        C
    1.425141  231.435651    5.000000        C
    1.425141  233.904067    5.000000        C
    1.425141  236.372483    5.000000        C
    1.425141  238.840899    5.000000        C
    1.425141  241.309315    5.000000        C
    1.425141  243.777731    5.000000        C
    1.425141  246.246147    5.000000        C
    1.425141  248.714563    5.000000        C
    1.425141  251.182979    5.000000        C
