POSCAR for generated by WannierTools
1.0
    0.000000    0.000000   10.000000
    2.137711   -1.234208    0.000000
    0.000000  246.841600    0.000000
C     
   200
Direct
    0.500000    0.333333    0.006667        C
    0.500000    0.666667    0.003333        C
    0.500000    0.333333    0.016667        C
    0.500000    0.666667    0.013333        C
    0.500000    0.333333    0.026667        C
    0.500000    0.666667    0.023333        C
    0.500000    0.333333    0.036667        C
    0.500000    0.666667    0.033333        C
    0.500000    0.333333    0.046667        C
    0.500000    0.666667    0.043333        C
    0.500000    0.333333    0.056667        C
    0.500000    0.666667    0.053333        C
    0.500000    0.333333    0.066667        C
    0.500000    0.666667    0.063333        C
    0.500000    0.333333    0.076667        C
    0.500000    0.666667    0.073333        C
    0.500000    0.333333    0.086667        C
    0.500000    0.666667    0.083333        C
    0.500000    0.333333    0.096667        C
    0.500000    0.666667    0.093333        C
    0.500000    0.333333    0.106667        C
    0.500000    0.666667    0.103333        C
    0.500000    0.333333    0.116667        C
    0.500000    0.666667    0.113333        C
    0.500000    0.333333    0.126667        C
    0.500000    0.666667    0.123333        C
    0.500000    0.333333    0.136667        C
    0.500000    0.666667    0.133333        C
    0.500000    0.333333    0.146667        C
    0.500000    0.666667    0.143333        C
    0.500000    0.333333    0.156667        C
    0.500000    0.666667    0.153333        C
    0.500000    0.333333    0.166667        C
    0.500000    0.666667    0.163333        C
    0.500000    0.333333    0.176667        C
    0.500000    0.666667    0.173333        C
    0.500000    0.333333    0.186667        C
    0.500000    0.666667    0.183333        C
    0.500000    0.333333    0.196667        C
    0.500000    0.666667    0.193333        C
    0.500000    0.333333    0.206667        C
    0.500000    0.666667    0.203333        C
    0.500000    0.333333    0.216667        C
    0.500000    0.666667    0.213333        C
    0.500000    0.333333    0.226667        C
    0.500000    0.666667    0.223333        C
    0.500000    0.333333    0.236667        C
    0.500000    0.666667    0.233333        C
    0.500000    0.333333    0.246667        C
    0.500000    0.666667    0.243333        C
    0.500000    0.333333    0.256667        C
    0.500000    0.666667    0.253333        C
    0.500000    0.333333    0.266667        C
    0.500000    0.666667    0.263333        C
    0.500000    0.333333    0.276667        C
    0.500000    0.666667    0.273333        C
    0.500000    0.333333    0.286667        C
    0.500000    0.666667    0.283333        C
    0.500000    0.333333    0.296667        C
    0.500000    0.666667    0.293333        C
    0.500000    0.333333    0.306667        C
    0.500000    0.666667    0.303333        C
    0.500000    0.333333    0.316667        C
    0.500000    0.666667    0.313333        C
    0.500000    0.333333    0.326667        C
    0.500000    0.666667    0.323333        C
    0.500000    0.333333    0.336667        C
    0.500000    0.666667    0.333333        C
    0.500000    0.333333    0.346667        C
    0.500000    0.666667    0.343333        C
    0.500000    0.333333    0.356667        C
    0.500000    0.666667    0.353333        C
    0.500000    0.333333    0.366667        C
    0.500000    0.666667    0.363333        C
    0.500000    0.333333    0.376667        C
    0.500000    0.666667    0.373333        C
    0.500000    0.333333    0.386667        C
    0.500000    0.666667    0.383333        C
    0.500000    0.333333    0.396667        C
    0.500000    0.666667    0.393333        C
    0.500000    0.333333    0.406667        C
    0.500000    0.666667    0.403333        C
    0.500000    0.333333    0.416667        C
    0.500000    0.666667    0.413333        C
    0.500000    0.333333    0.426667        C
    0.500000    0.666667    0.423333        C
    0.500000    0.333333    0.436667        C
    0.500000    0.666667    0.433333        C
    0.500000    0.333333    0.446667        C
    0.500000    0.666667    0.443333        C
    0.500000    0.333333    0.456667        C
    0.500000    0.666667    0.453333        C
    0.500000    0.333333    0.466667        C
    0.500000    0.666667    0.463333        C
    0.500000    0.333333    0.476667        C
    0.500000    0.666667    0.473333        C
    0.500000    0.333333    0.486667        C
    0.500000    0.666667    0.483333        C
    0.500000    0.333333    0.496667        C
    0.500000    0.666667    0.493333        C
    0.500000    0.333333    0.506667        C
    0.500000    0.666667    0.503333        C
    0.500000    0.333333    0.516667        C
    0.500000    0.666667    0.513333        C
    0.500000    0.333333    0.526667        C
    0.500000    0.666667    0.523333        C
    0.500000    0.333333    0.536667        C
    0.500000    0.666667    0.533333        C
    0.500000    0.333333    0.546667        C
    0.500000    0.666667    0.543333        C
    0.500000    0.333333    0.556667        C
    0.500000    0.666667    0.553333        C
    0.500000    0.333333    0.566667        C
    0.500000    0.666667    0.563333        C
    0.500000    0.333333    0.576667        C
    0.500000    0.666667    0.573333        C
    0.500000    0.333333    0.586667        C
    0.500000    0.666667    0.583333        C
    0.500000    0.333333    0.596667        C
    0.500000    0.666667    0.593333        C
    0.500000    0.333333    0.606667        C
    0.500000    0.666667    0.603333        C
    0.500000    0.333333    0.616667        C
    0.500000    0.666667    0.613333        C
    0.500000    0.333333    0.626667        C
    0.500000    0.666667    0.623333        C
    0.500000    0.333333    0.636667        C
    0.500000    0.666667    0.633333        C
    0.500000    0.333333    0.646667        C
    0.500000    0.666667    0.643333        C
    0.500000    0.333333    0.656667        C
    0.500000    0.666667    0.653333        C
    0.500000    0.333333    0.666667        C
    0.500000    0.666667    0.663333        C
    0.500000    0.333333    0.676667        C
    0.500000    0.666667    0.673333        C
    0.500000    0.333333    0.686667        C
    0.500000    0.666667    0.683333        C
    0.500000    0.333333    0.696667        C
    0.500000    0.666667    0.693333        C
    0.500000    0.333333    0.706667        C
    0.500000    0.666667    0.703333        C
    0.500000    0.333333    0.716667        C
    0.500000    0.666667    0.713333        C
    0.500000    0.333333    0.726667        C
    0.500000    0.666667    0.723333        C
    0.500000    0.333333    0.736667        C
    0.500000    0.666667    0.733333        C
    0.500000    0.333333    0.746667        C
    0.500000    0.666667    0.743333        C
    0.500000    0.333333    0.756667        C
    0.500000    0.666667    0.753333        C
    0.500000    0.333333    0.766667        C
    0.500000    0.666667    0.763333        C
    0.500000    0.333333    0.776667        C
    0.500000    0.666667    0.773333        C
    0.500000    0.333333    0.786667        C
    0.500000    0.666667    0.783333        C
    0.500000    0.333333    0.796667        C
    0.500000    0.666667    0.793333        C
    0.500000    0.333333    0.806667        C
    0.500000    0.666667    0.803333        C
    0.500000    0.333333    0.816667        C
    0.500000    0.666667    0.813333        C
    0.500000    0.333333    0.826667        C
    0.500000    0.666667    0.823333        C
    0.500000    0.333333    0.836667        C
    0.500000    0.666667    0.833333        C
    0.500000    0.333333    0.846667        C
    0.500000    0.666667    0.843333        C
    0.500000    0.333333    0.856667        C
    0.500000    0.666667    0.853333        C
    0.500000    0.333333    0.866667        C
    0.500000    0.666667    0.863333        C
    0.500000    0.333333    0.876667        C
    0.500000    0.666667    0.873333        C
    0.500000    0.333333    0.886667        C
    0.500000    0.666667    0.883333        C
    0.500000    0.333333    0.896667        C
    0.500000    0.666667    0.893333        C
    0.500000    0.333333    0.906667        C
    0.500000    0.666667    0.903333        C
    0.500000    0.333333    0.916667        C
    0.500000    0.666667    0.913333        C
    0.500000    0.333333    0.926667        C
    0.500000    0.666667    0.923333        C
    0.500000    0.333333    0.936667        C
    0.500000    0.666667    0.933333        C
    0.500000    0.333333    0.946667        C
    0.500000    0.666667    0.943333        C
    0.500000    0.333333    0.956667        C
    0.500000    0.666667    0.953333        C
    0.500000    0.333333    0.966667        C
    0.500000    0.666667    0.963333        C
    0.500000    0.333333    0.976667        C
    0.500000    0.666667    0.973333        C
    0.500000    0.333333    0.986667        C
    0.500000    0.666667    0.983333        C
    0.500000    0.333333    0.996667        C
    0.500000    0.666667    0.993333        C
